solution status: optimal solution found
objective value:                     177894.048755149
d11(0,0)                                            1 	(obj:0)
d11(1,1)                                            1 	(obj:0)
d11(2,3)                                            1 	(obj:0)
d11(2,4)                                            1 	(obj:0)
d11(2,5)                                            1 	(obj:0)
d11(2,6)                                            1 	(obj:0)
d11(3,7)                                            1 	(obj:0)
d11(3,8)                            0.999999999999997 	(obj:0)
d11(3,9)                                            1 	(obj:0)
d11(3,10)                                           1 	(obj:0)
d11(3,11)                                           1 	(obj:0)
d11(3,13)                                           1 	(obj:0)
d11(4,15)                                           1 	(obj:0)
d11(4,16)                                           1 	(obj:0)
d11(4,17)                                           1 	(obj:0)
d11(4,19)                                           1 	(obj:0)
d11(4,21)                                           1 	(obj:0)
d11(4,23)                                           1 	(obj:0)
d11(4,25)                                           1 	(obj:0)
d11(4,26)                                           1 	(obj:0)
d11(4,27)                                           1 	(obj:0)
d11(4,29)                                           1 	(obj:0)
d11(4,30)                                           1 	(obj:0)
d21(3,7)                                            1 	(obj:0)
d21(4,15)                                           1 	(obj:0)
d21(4,16)                                           1 	(obj:0)
d21(4,17)                                           1 	(obj:0)
d21(4,19)                                           1 	(obj:0)
d21(4,23)                                           1 	(obj:0)
STE(1,1)                              12831.750101103 	(obj:0)
STE(0,0)                                        15750 	(obj:0)
STE(1,2)                                        14490 	(obj:0)
STE(2,3)                             8819.99999999453 	(obj:0)
STE(2,4)                             10478.2498988834 	(obj:0)
STE(2,5)                             10478.2498988916 	(obj:0)
STE(2,6)                             12136.4997977804 	(obj:0)
STE(3,7)                             5901.75010110569 	(obj:0)
STE(3,8)                             7559.99999999818 	(obj:0)
STE(3,9)                             7559.99999999451 	(obj:0)
STE(3,10)                            9218.24989888332 	(obj:0)
STE(3,11)                            7560.00000000272 	(obj:0)
STE(3,12)                            9218.24989889156 	(obj:0)
STE(3,13)                            9218.24989889154 	(obj:0)
STE(3,14)                            10876.4997977804 	(obj:0)
STE(4,15)                            2983.50020221684 	(obj:0)
STE(4,16)                            4641.75010110566 	(obj:0)
STE(4,17)                            4641.75010110933 	(obj:0)
STE(4,18)                                        6300 	(obj:0)
STE(4,19)                            4641.75010110566 	(obj:0)
STE(4,20)                            6299.99999999451 	(obj:0)
STE(4,21)                            6299.99999999448 	(obj:0)
STE(4,22)                            7958.24989888333 	(obj:0)
STE(4,23)                            4641.75010111387 	(obj:0)
STE(4,24)                                        6300 	(obj:0)
STE(4,25)                            6300.00000000272 	(obj:0)
STE(4,26)                            7958.24989889154 	(obj:0)
STE(4,27)                            6300.00000000269 	(obj:0)
STE(4,28)                            7958.24989889154 	(obj:0)
STE(4,29)                            7958.24989889154 	(obj:0)
STE(4,30)                            9616.49979778036 	(obj:0)
y1(3,11)                             1492.42490899996 	(obj:0)
y1(3,13)                             1492.42490899996 	(obj:0)
y1(4,15)                             1492.42490899996 	(obj:0)
y1(4,17)                             1492.42490899996 	(obj:0)
y1(4,18)                         -1.64029188454151e-009 	(obj:0)
y1(4,19)                             1492.42490899996 	(obj:0)
y1(4,21)                             1492.42490899996 	(obj:0)
y1(4,23)                             1492.42490899996 	(obj:0)
y1(4,24)                         2.44472175836563e-009 	(obj:0)
y1(4,25)                             1492.42490899996 	(obj:0)
y1(4,27)                             1492.42490899996 	(obj:0)
y1(4,29)                             1492.42490899996 	(obj:0)
AVE(1)                               3265.91696791192 	(obj:0)
AVE(2)                               3332.74178563731 	(obj:0)
AVE(3)                               3444.11697932125 	(obj:0)
AVE(4)                               3399.56511093778 	(obj:0)
WG(1)                                3265.91696791192 	(obj:10)
WG(2)                                3332.74178563731 	(obj:10)
WG(3)                                3444.11697932125 	(obj:10)
WG(4)                                3399.56511093778 	(obj:10)
BG(1)                                930.375531075187 	(obj:10)
BG(2)                                 1867.7855929317 	(obj:10)
BG(3)                                752.175519658342 	(obj:10)
BG(4)                                796.727388041812 	(obj:10)
y1(1,1)                              1492.42490900733 	(obj:0)
y1(2,3)                              2476.57509099759 	(obj:0)
y1(2,4)                              984.150181997657 	(obj:0)
y1(2,5)                              2476.57509099759 	(obj:0)
y1(2,6)                              984.150181997657 	(obj:0)
y1(3,7)                              1492.42490899996 	(obj:0)
y1(3,8)                          -3.27941961586475e-009 	(obj:0)
y1(3,9)                              1492.42490899996 	(obj:0)
